(set-info :smt-lib-version 2.6)
(set-logic QF_UFLRA)
(set-info :source |
MathSat group

|)
(set-info :category "random")
(set-info :status unsat)
(declare-fun x0 () Real)
(declare-fun x1 () Real)
(declare-fun x2 () Real)
(declare-fun x3 () Real)
(declare-fun x4 () Real)
(declare-fun x5 () Real)
(declare-fun x6 () Real)
(declare-fun x7 () Real)
(declare-fun x8 () Real)
(declare-fun x9 () Real)
(declare-fun x10 () Real)
(declare-fun x11 () Real)
(declare-fun x12 () Real)
(declare-fun x13 () Real)
(declare-fun x14 () Real)
(declare-fun x15 () Real)
(declare-fun x16 () Real)
(declare-fun x17 () Real)
(declare-fun x18 () Real)
(declare-fun x19 () Real)
(declare-fun x20 () Real)
(declare-fun x21 () Real)
(declare-fun x22 () Real)
(declare-fun x23 () Real)
(declare-fun x24 () Real)
(declare-fun x25 () Real)
(declare-fun x26 () Real)
(declare-fun x27 () Real)
(declare-fun x28 () Real)
(declare-fun x29 () Real)
(declare-fun f0_1 (Real) Real)
(declare-fun f0_2 (Real Real) Real)
(declare-fun f0_3 (Real Real Real) Real)
(declare-fun f0_4 (Real Real Real Real) Real)
(declare-fun P0 () Bool)
(declare-fun P1 () Bool)
(declare-fun P2 () Bool)
(declare-fun P3 () Bool)
(declare-fun P4 () Bool)
(declare-fun P5 () Bool)
(declare-fun P6 () Bool)
(declare-fun P7 () Bool)
(declare-fun P8 () Bool)
(declare-fun P9 () Bool)
(declare-fun P10 () Bool)
(declare-fun P11 () Bool)
(declare-fun P12 () Bool)
(declare-fun P13 () Bool)
(declare-fun P14 () Bool)
(declare-fun P15 () Bool)
(declare-fun P16 () Bool)
(declare-fun P17 () Bool)
(declare-fun P18 () Bool)
(declare-fun P19 () Bool)
(declare-fun P20 () Bool)
(declare-fun P21 () Bool)
(declare-fun P22 () Bool)
(declare-fun P23 () Bool)
(declare-fun P24 () Bool)
(declare-fun P25 () Bool)
(declare-fun P26 () Bool)
(declare-fun P27 () Bool)
(declare-fun P28 () Bool)
(declare-fun P29 () Bool)
(assert (let ((?v_106 (<= (- (- (* 9 x4) (* 37 x3)) (* 30 x26)) 34)) (?v_17 (* 20 x9)) (?v_28 (* 14 x29)) (?v_29 (* 23 x9)) (?v_2 (* 9 x26)) (?v_60 (<= (- (- (* 13 x0) (* 26 x11)) (* 8 x28)) 8)) (?v_41 (<= (+ (- (* 37 x6) (* 7 x10)) (* 3 x22)) 21)) (?v_121 (< (- (- (* 2 x6) (* 8 x5)) (* 17 x9)) 42)) (?v_69 (= (+ (- (* 36 x3) (* 21 x22)) (* 42 x17)) 13)) (?v_11 (distinct (f0_1 x23) (f0_2 x4 x18))) (?v_95 (f0_1 x6))) (let ((?v_111 (= (f0_2 x7 x7) ?v_95)) (?v_44 (= x7 (f0_1 x27))) (?v_48 (distinct x15 (f0_2 x8 x12))) (?v_20 (distinct x13 x20)) (?v_6 (= (f0_1 x29) x25)) (?v_37 (f0_1 x21))) (let ((?v_3 (= x13 ?v_37)) (?v_9 (f0_1 x16))) (let ((?v_94 (distinct ?v_9 x9)) (?v_120 (distinct (f0_2 x28 x9) (f0_1 x9))) (?v_45 (f0_1 x4))) (let ((?v_58 (distinct x29 ?v_45)) (?v_16 (= (f0_2 x28 x28) x23)) (?v_145 (= ?v_9 (f0_2 x15 x20))) (?v_122 (= (f0_2 x8 x11) (f0_1 x26))) (?v_36 (distinct x3 (f0_1 x12))) (?v_10 (distinct (f0_2 x7 x25) ?v_45)) (?v_31 (f0_1 x2))) (let ((?v_64 (= x10 ?v_31)) (?v_55 (distinct (f0_2 x13 x0) (f0_2 x25 x5))) (?v_82 (distinct x19 (f0_1 x0))) (?v_1 (distinct (f0_2 x19 x1) (f0_2 x10 x7))) (?v_76 (distinct (f0_2 x3 x8) x28)) (?v_133 (distinct x17 (f0_2 x4 x0))) (?v_53 (distinct ?v_95 (f0_1 x14))) (?v_5 (= (f0_2 x3 x29) ?v_9)) (?v_105 (= x14 (f0_1 x15))) (?v_0 (= (f0_2 x1 x14) (f0_2 x24 x4))) (?v_104 (distinct x1 ?v_37)) (?v_34 (= x9 x15)) (?v_61 (= x14 x16)) (?v_155 (= (f0_2 x28 x23) ?v_31)) (?v_22 (distinct (f0_2 x10 x23) (f0_2 x4 x19)))) (let ((?v_21 (not ?v_53)) (?v_4 (not ?v_44)) (?v_96 (not ?v_11)) (?v_26 (not ?v_76)) (?v_142 (not ?v_64)) (?v_79 (not ?v_0)) (?v_19 (not P25)) (?v_12 (not P2)) (?v_100 (not P6)) (?v_27 (not ?v_16)) (?v_7 (not ?v_3)) (?v_89 (not ?v_5)) (?v_13 (not P8)) (?v_38 (not ?v_48)) (?v_24 (not ?v_55)) (?v_112 (not P11)) (?v_65 (not ?v_121)) (?v_8 (not ?v_82)) (?v_52 (not P22)) (?v_132 (not ?v_145)) (?v_73 (not ?v_20)) (?v_33 (not P10)) (?v_42 (not ?v_105)) (?v_114 (not P3)) (?v_50 (not ?v_41)) (?v_134 (not ?v_155)) (?v_68 (not P27)) (?v_43 (not P16)) (?v_113 (not ?v_104)) (?v_47 (not P4)) (?v_108 (not ?v_69)) (?v_72 (not P18))) (let ((?v_157 (or ?v_72 ?v_43)) (?v_143 (not ?v_10)) (?v_136 (not ?v_61)) (?v_152 (not ?v_58)) (?v_125 (not P14)) (?v_138 (not P28)) (?v_102 (not P24)) (?v_101 (not ?v_120)) (?v_71 (not P7)) (?v_78 (not P20)) (?v_88 (not ?v_34)) (?v_70 (not ?v_1)) (?v_80 (not P5)) (?v_85 (not ?v_36)) (?v_83 (not ?v_6)) (?v_128 (not ?v_94)) (?v_98 (not P21)) (?v_131 (not ?v_106)) (?v_148 (not P9)) (?v_109 (not P23)) (?v_91 (not ?v_60)) (?v_110 (not ?v_122)) (?v_126 (not P0)) (?v_149 (not P1)) (?v_146 (not ?v_111)) (?v_150 (not P13)) (?v_130 (not P29)) (?v_123 (not P12)) (?v_140 (not P15)) (?v_129 (not P17)) (?v_153 (not ?v_133))) (let ((?v_147 (or ?v_27 ?v_153)) (?v_161 (or ?v_145 ?v_123)) (?v_158 (not P26))) (let ((?v_162 (or ?v_158 ?v_100)) (?v_156 (not ?v_22)) (?v_163 (not P19)) (?v_23 (<= (+ (* 29 x10) (* 38 x28) (* 38 x12)) 40)) (?v_144 (<= (+ (* 8 x27) x25 (* 14 x19)) 28))) (let ((?v_15 (not ?v_144)) (?v_119 (not ?v_23)) (?v_57 (<= (- (* (- 19) x27) (* 36 x24)) (- 40)))) (let ((?v_49 (not ?v_57)) (?v_116 (<= (+ (- (* 25 x5) (* 27 x8)) (* 27 x7)) (- 28)))) (let ((?v_63 (not ?v_116)) (?v_118 (= (+ (* (- 24) x23) (* 20 x7) (* 2 x19)) 33))) (let ((?v_46 (not ?v_118)) (?v_77 (<= (+ ?v_17 (* 28 x29) (* 38 x11)) (- 18))) (?v_25 (< (+ (* (- 20) x7) (* 2 x11) ?v_2) (- 14))) (?v_59 (<= (- (+ (* (- 7) x10) (* 15 x1)) (* 23 x16)) (- 14))) (?v_14 (< (- (- (* (- 15) x11) (* 11 x28)) ?v_2) 27))) (let ((?v_107 (not ?v_14)) (?v_40 (< (- (+ (* (- 6) x8) (* 9 x6)) (* 19 x18)) (- 17))) (?v_18 (<= (- (+ (* (- 1) x9) (* 35 x25)) (* 36 x12)) 15)) (?v_54 (< (+ (- (* (- 25) x25) (* 27 x28)) (* 39 x25)) 39)) (?v_86 (<= (- (+ (* (- 25) x6) (* 34 x23)) (* 8 x2)) 36)) (?v_32 (<= (- (+ (* (- 30) x15) (* 17 x3)) ?v_29) 30))) (let ((?v_137 (not ?v_32)) (?v_62 (<= (- (- (* (- 26) x16) (* 12 x12)) 0) 3)) (?v_35 (< (- (* (- 6) x6) (* 41 x14)) (- 3)))) (let ((?v_51 (not ?v_35)) (?v_39 (distinct (- (- ?v_28 (* 3 x12)) x22) (- 11))) (?v_56 (<= (- (* 33 x12) ?v_17) (- 6))) (?v_87 (not ?v_25)) (?v_30 (<= (+ ?v_28 (* 36 x6) ?v_29) (- 16)))) (let ((?v_66 (not ?v_30)) (?v_127 (not ?v_18)) (?v_117 (<= (+ (- (* (- 42) x16) (* 37 x26)) (* 5 x20)) (- 31)))) (let ((?v_74 (not ?v_117)) (?v_67 (<= (- (+ (* (- 2) x23) (* 9 x11)) (* 37 x20)) 23)) (?v_99 (not ?v_40)) (?v_135 (not ?v_56)) (?v_93 (< (- (+ (* (- 5) x4) (* 23 x20)) (* 28 x16)) (- 13))) (?v_97 (not ?v_59))) (let ((?v_159 (or ?v_67 ?v_68)) (?v_75 (< (- (* (- 5) x29) (* 36 x10)) 5)) (?v_81 (not ?v_67)) (?v_90 (< (+ (- (* (- 26) x6) (* 9 x25)) (* 28 x28)) (- 1))) (?v_84 (not ?v_77)) (?v_92 (not ?v_62)) (?v_103 (distinct (+ (* (- 35) x25) x22 (* 21 x29)) 21))) (let ((?v_139 (not ?v_103)) (?v_154 (not ?v_86)) (?v_124 (not ?v_90)) (?v_141 (not ?v_93)) (?v_115 (not ?v_39)) (?v_160 (not ?v_54)) (?v_151 (not ?v_75))) (and (and (and (and (and (and (and (and (and (and (and (and (and (and (and (and (and (and (and (and (and (and (and (and (and (and (and (and (and (and (and (and (and (and (and (and (and (and (and (and (and (and (and (and (and (and (and (and (and (and (and (and (and (and (and (and (and (and (and (and (and (and (and (and (and (and (and (and (and (and (and (and (and (and (and (and (and (and (and (and (and (and (and (and (and (and (and (and (and (and (and (and (and (and (and (and (and (and (and (and (and (and (and (and (and (and (and (and (and (and (and (and (and (and (and (and (and (and (and (and (and (and (and (and (and (and (and (and (and (and (and (and (and (and (and (and (and (and (and (and (and (and (and (and (and (and (and (and (and (and (and (and (and (and (and (and (and (and (and (and (and (and (and (and (and (and (and (and (and (and (and (and (and (and (and (and (and (and (and (and (and (and (and (and (and (and (and (and (and (and (and (and (and (and (and (and (and (and (and (and (and (and (and (and (and (and (and (and (and (and (and (and (and (and (and (and (and (and (and (and (and (and (and (and (and (and (and (and (and (and (and (and (and (and (and (and (and (and (and (and (and (and (and (and (and (and (and (and (and (and (and (and (and (and (and (and (and (and (and (and (and (and (and (and (and (and (and (and (and (and (and (and (and (and (and (and (and (and (and (and (and (and (and (and (and (and (and (and (and (and (and (and (and (and (and (and (and (and (and (and (and (and (and (and (and (and (and (and (and (and (and (and (and (and (and (and (and (and (and (and (and (and (and (and (and (and (and (and (and (and (and (and (and (and (and (and (and (and (and (and (and (and (and (and (and (and (and (and (and (and (and (and (and (and (and (and (and (and (and (and (and (and (and (and (and (and (and (and (and (and (and (and (and (and (and (and (and (and (and (and (and (and (and (and (and (and (and (and (and (and (and (and (and (and (and (and (and (and (and (and (and (and (and (and (and (and (and (and (and (and (and (and (and (and (and (and (and (and (and (and (and (and (and (and (and (and (and (and (and (and (and (and (and (and (and (and (and (and (and (and (and (and (and (and (and (and (and (and (and (or (or ?v_0 ?v_49) ?v_21) (or (or ?v_34 ?v_23) P20)) (or (or ?v_4 ?v_96) ?v_26)) (or (or ?v_1 ?v_63) ?v_10)) (or (or ?v_142 ?v_79) ?v_1)) (or (or ?v_15 ?v_46) ?v_6)) (or (or ?v_77 P15) ?v_19)) (or (or ?v_12 ?v_100) ?v_25)) (or (or ?v_27 ?v_59) ?v_107)) (or (or ?v_7 ?v_3) ?v_89)) (or (or ?v_40 ?v_18) ?v_13)) (or (or ?v_38 ?v_24) ?v_112)) (or (or ?v_65 ?v_4) ?v_0)) (or (or ?v_8 ?v_52) ?v_54)) (or (or ?v_5 ?v_6) ?v_7)) (or (or ?v_86 ?v_8) ?v_132)) (or (or ?v_137 ?v_10) ?v_11)) (or (or P28 ?v_62) ?v_73)) (or (or ?v_12 ?v_13) ?v_60)) (or (or ?v_51 ?v_14) ?v_1)) (or (or P23 ?v_36) ?v_15)) (or (or P14 ?v_39) P26)) (or (or P24 ?v_16) ?v_56)) (or (or ?v_18 ?v_22) P16)) (or (or ?v_19 ?v_20) P7)) (or (or ?v_33 ?v_21) ?v_22)) (or (or ?v_42 ?v_119) ?v_24)) (or (or ?v_114 ?v_87) ?v_50)) (or (or P14 P3) P21)) (or (or ?v_26 ?v_27) ?v_30)) (or (or ?v_5 P15) ?v_30)) (or (or ?v_19 P17) ?v_134)) (or (or ?v_32 ?v_33) ?v_34)) (or (or P25 ?v_24) ?v_35)) (or (or P23 ?v_34) ?v_68)) (or (or ?v_36 ?v_43) ?v_35)) (or (or ?v_113 ?v_66) ?v_38)) (or (or ?v_26 ?v_39) ?v_40)) (or (or ?v_14 ?v_47) ?v_108)) (or (or P1 ?v_41) ?v_127)) (or (or ?v_42 ?v_74) P24)) (or ?v_157 ?v_67)) (or (or ?v_44 ?v_143) P15)) (or (or ?v_136 ?v_152) P0)) (or (or ?v_125 ?v_46) ?v_34)) (or (or ?v_138 ?v_6) ?v_102)) (or (or ?v_47 ?v_48) ?v_49)) (or (or ?v_50 ?v_51) ?v_99)) (or (or ?v_101 ?v_21) ?v_41)) (or (or P10 ?v_49) ?v_52)) (or (or ?v_53 ?v_26) ?v_54)) (or (or ?v_14 P13) ?v_55)) (or (or ?v_135 ?v_93) ?v_57)) (or (or ?v_71 ?v_58) ?v_78)) (or (or ?v_24 ?v_26) ?v_47)) (or (or ?v_97 ?v_60) ?v_49)) (or (or ?v_41 ?v_53) ?v_88)) (or (or ?v_70 ?v_80) ?v_61)) (or (or ?v_32 ?v_55) ?v_62)) (or (or ?v_63 ?v_50) ?v_85)) (or (or ?v_83 ?v_64) ?v_42)) (or (or P12 ?v_65) ?v_66)) (or ?v_159 P2)) (or (or ?v_69 ?v_75) ?v_133)) (or (or P9 ?v_70) ?v_81)) (or (or ?v_71 ?v_72) P17)) (or (or ?v_22 ?v_0) ?v_35)) (or (or P1 ?v_56) ?v_73)) (or (or P11 ?v_74) ?v_75)) (or (or ?v_52 ?v_76) ?v_19)) (or (or ?v_90 ?v_36) ?v_84)) (or (or ?v_78 P17) ?v_56)) (or (or ?v_79 ?v_80) ?v_52)) (or (or ?v_81 ?v_128) ?v_82)) (or (or P25 ?v_22) ?v_92)) (or (or ?v_83 P6) ?v_18)) (or (or ?v_84 ?v_85) ?v_98)) (or (or ?v_35 ?v_51) ?v_24)) (or (or ?v_139 ?v_66) ?v_53)) (or (or ?v_85 ?v_22) ?v_131)) (or (or ?v_148 P28) ?v_154)) (or (or ?v_80 ?v_87) ?v_60)) (or (or ?v_88 ?v_109) ?v_77)) (or (or P26 ?v_91) ?v_30)) (or (or P18 ?v_34) ?v_89)) (or (or ?v_54 ?v_124) ?v_5)) (or (or ?v_73 P9) ?v_67)) (or (or ?v_6 ?v_91) ?v_92)) (or (or ?v_50 ?v_69) ?v_141)) (or (or P17 ?v_11) ?v_76)) (or (or P6 ?v_25) ?v_94)) (or (or ?v_43 ?v_6) ?v_4)) (or (or ?v_44 ?v_111) P24)) (or (or ?v_96 ?v_18) ?v_62)) (or (or ?v_97 ?v_62) ?v_98)) (or (or ?v_25 ?v_64) ?v_99)) (or (or ?v_99 ?v_100) ?v_60)) (or (or P22 ?v_101) ?v_42)) (or (or ?v_102 P26) ?v_42)) (or (or ?v_103 ?v_97) ?v_30)) (or (or ?v_20 ?v_104) ?v_69)) (or (or ?v_78 ?v_44) P26)) (or (or P2 ?v_115) P0)) (or (or ?v_110 ?v_105) ?v_126)) (or (or ?v_106 ?v_82) ?v_46)) (or (or ?v_89 ?v_107) ?v_108)) (or (or ?v_34 ?v_149) ?v_109)) (or (or ?v_46 ?v_110) ?v_15)) (or (or ?v_146 ?v_108) ?v_70)) (or (or ?v_112 ?v_113) ?v_7)) (or (or ?v_60 ?v_76) ?v_114)) (or (or ?v_96 ?v_109) P9)) (or (or ?v_110 ?v_150) ?v_130)) (or (or ?v_71 ?v_115) ?v_27)) (or (or ?v_116 ?v_14) ?v_41)) (or (or ?v_76 ?v_93) ?v_7)) (or (or ?v_117 ?v_118) ?v_109)) (or (or ?v_119 ?v_120) ?v_7)) (or (or ?v_103 ?v_14) ?v_36)) (or (or ?v_19 ?v_53) ?v_121)) (or (or ?v_56 ?v_41) ?v_14)) (or (or ?v_83 ?v_122) ?v_123)) (or (or ?v_65 P28) ?v_4)) (or (or ?v_123 ?v_23) ?v_87)) (or (or ?v_55 P28) ?v_42)) (or (or ?v_53 ?v_32) ?v_38)) (or (or ?v_52 ?v_96) ?v_80)) (or (or ?v_67 ?v_35) P4)) (or (or ?v_36 ?v_13) ?v_124)) (or (or ?v_125 ?v_120) ?v_126)) (or (or ?v_50 ?v_96) ?v_23)) (or (or P7 P28) ?v_107)) (or (or ?v_125 ?v_140) ?v_73)) (or (or ?v_75 P5) ?v_40)) (or (or ?v_88 ?v_50) ?v_13)) (or (or ?v_129 P11) ?v_43)) (or (or ?v_50 ?v_49) ?v_127)) (or (or ?v_117 ?v_10) P21)) (or (or ?v_20 P7) ?v_99)) (or (or P27 P12) ?v_75)) (or (or ?v_128 ?v_105) ?v_82)) (or (or ?v_129 ?v_39) ?v_36)) (or (or ?v_117 ?v_54) ?v_75)) (or (or ?v_128 ?v_113) P25)) (or (or ?v_130 ?v_4) ?v_11)) (or (or P5 ?v_49) ?v_109)) (or (or ?v_131 ?v_86) ?v_132)) (or ?v_147 ?v_71)) (or (or ?v_47 ?v_134) ?v_75)) (or (or P22 ?v_64) ?v_100)) (or (or P1 ?v_101) ?v_100)) (or (or ?v_101 ?v_82) ?v_129)) (or (or ?v_135 ?v_34) ?v_71)) (or (or ?v_19 ?v_136) ?v_137)) (or (or ?v_101 ?v_109) ?v_86)) (or (or ?v_105 ?v_75) P26)) (or (or ?v_94 ?v_41) P20)) (or (or ?v_98 P25) ?v_128)) (or (or ?v_138 ?v_139) ?v_33)) (or (or ?v_137 ?v_140) P23)) (or (or ?v_91 ?v_118) ?v_87)) (or (or ?v_75 ?v_19) ?v_96)) (or (or P0 ?v_23) ?v_141)) (or (or ?v_142 ?v_46) ?v_96)) (or (or ?v_14 ?v_103) ?v_96)) (or (or ?v_94 ?v_54) ?v_39)) (or (or ?v_54 ?v_48) ?v_82)) (or (or ?v_57 P29) ?v_143)) (or (or ?v_20 ?v_8) ?v_67)) (or (or P17 P11) ?v_60)) (or (or ?v_93 ?v_14) ?v_112)) (or (or ?v_19 P6) ?v_21)) (or (or ?v_99 ?v_52) ?v_144)) (or (or ?v_36 P27) ?v_38)) (or (or ?v_15 ?v_18) ?v_6)) (or (or ?v_7 ?v_12) ?v_140)) (or (or ?v_8 ?v_3) P27)) (or (or P10 ?v_66) ?v_85)) (or (or ?v_100 ?v_46) ?v_7)) (or (or ?v_136 ?v_122) ?v_96)) (or (or P9 ?v_51) ?v_96)) (or (or ?v_1 ?v_65) ?v_68)) (or ?v_161 ?v_118)) (or (or ?v_122 ?v_48) ?v_160)) (or (or ?v_85 ?v_19) ?v_78)) (or (or ?v_142 ?v_146) ?v_3)) (or ?v_147 ?v_0)) (or (or ?v_71 ?v_21) ?v_148)) (or (or ?v_13 P5) ?v_149)) (or (or ?v_91 P24) ?v_141)) (or ?v_162 P29)) (or (or ?v_112 ?v_142) ?v_33)) (or (or ?v_94 ?v_115) ?v_112)) (or (or ?v_14 ?v_124) ?v_32)) (or (or ?v_42 ?v_77) ?v_40)) (or (or ?v_151 ?v_124) P23)) (or (or P8 ?v_19) P15)) (or (or ?v_129 ?v_53) ?v_46)) (or (or ?v_81 ?v_150) ?v_87)) (or (or ?v_137 ?v_138) P16)) (or (or P12 ?v_112) ?v_130)) (or (or ?v_137 ?v_107) ?v_61)) (or (or ?v_67 ?v_54) ?v_151)) (or (or ?v_27 ?v_61) ?v_36)) (or (or ?v_136 P20) ?v_77)) (or (or ?v_5 ?v_64) ?v_16)) (or (or ?v_152 ?v_87) ?v_50)) (or (or ?v_24 ?v_8) ?v_34)) (or (or P20 ?v_61) ?v_20)) (or (or ?v_39 ?v_80) ?v_128)) (or (or P14 P5) P8)) (or (or ?v_106 ?v_132) ?v_16)) (or (or ?v_38 P21) ?v_25)) (or (or ?v_59 P3) ?v_116)) (or (or P2 ?v_131) ?v_23)) (or (or P15 ?v_153) ?v_124)) (or (or ?v_10 P6) ?v_34)) (or (or P17 P9) ?v_7)) (or (or ?v_118 ?v_99) ?v_121)) (or (or ?v_121 ?v_7) ?v_152)) (or (or P21 ?v_92) ?v_135)) (or (or ?v_38 ?v_156) P22)) (or (or ?v_74 ?v_154) ?v_130)) (or (or P15 ?v_124) ?v_96)) (or (or ?v_14 ?v_125) ?v_96)) (or (or ?v_52 ?v_90) ?v_128)) (or (or ?v_44 ?v_137) P28)) (or (or ?v_73 ?v_154) ?v_111)) (or (or ?v_24 ?v_88) P7)) (or (or ?v_153 P8) P19)) (or (or P22 ?v_41) ?v_91)) (or (or ?v_38 ?v_130) ?v_81)) (or (or P22 ?v_129) ?v_140)) (or (or ?v_77 ?v_78) ?v_107)) (or (or ?v_152 ?v_61) ?v_89)) (or (or P9 ?v_73) ?v_115)) (or (or ?v_40 ?v_26) ?v_112)) (or (or ?v_139 P16) ?v_109)) (or (or ?v_1 P21) ?v_44)) (or (or ?v_13 ?v_100) ?v_75)) (or (or ?v_20 ?v_25) ?v_127)) (or (or ?v_52 ?v_153) ?v_74)) (or (or ?v_54 ?v_151) ?v_155)) (or (or ?v_103 ?v_107) ?v_39)) (or (or P0 ?v_27) ?v_134)) (or (or P13 ?v_146) ?v_94)) (or (or P28 ?v_118) P0)) (or (or ?v_42 ?v_54) ?v_144)) (or (or ?v_53 ?v_47) ?v_38)) (or (or ?v_77 ?v_65) ?v_91)) (or (or ?v_81 P18) ?v_33)) (or (or ?v_103 P24) ?v_24)) (or (or P1 ?v_145) ?v_91)) (or (or ?v_33 ?v_82) P28)) (or (or ?v_122 ?v_46) ?v_69)) (or (or P19 ?v_113) ?v_156)) (or (or ?v_107 ?v_60) ?v_126)) (or (or P5 ?v_30) ?v_115)) (or (or P2 ?v_96) ?v_39)) (or (or ?v_48 P25) ?v_6)) (or (or ?v_18 ?v_27) ?v_73)) (or (or P24 ?v_89) ?v_119)) (or (or ?v_131 ?v_116) P7)) (or (or ?v_142 P6) ?v_20)) (or (or ?v_50 ?v_36) ?v_56)) (or (or P19 ?v_103) ?v_62)) (or (or ?v_63 ?v_143) ?v_96)) (or (or ?v_75 ?v_0) ?v_144)) (or ?v_157 ?v_154)) (or (or ?v_112 ?v_112) ?v_156)) (or (or ?v_12 ?v_70) ?v_127)) (or (or P20 ?v_22) ?v_114)) (or (or ?v_119 P12) ?v_133)) (or (or ?v_69 ?v_46) ?v_4)) (or (or P18 ?v_58) ?v_13)) (or (or ?v_132 P18) ?v_36)) (or (or ?v_77 P27) ?v_7)) (or (or ?v_13 ?v_105) ?v_63)) (or (or ?v_59 ?v_149) P11)) (or (or ?v_152 P14) ?v_65)) (or (or ?v_158 ?v_30) ?v_132)) (or (or ?v_18 ?v_78) P5)) (or (or P19 ?v_108) ?v_105)) (or (or ?v_119 ?v_14) ?v_92)) (or (or P22 ?v_79) P18)) (or (or ?v_6 ?v_128) ?v_99)) (or (or P21 ?v_103) ?v_115)) (or (or ?v_116 P16) ?v_46)) (or (or ?v_116 ?v_41) ?v_13)) (or (or ?v_140 ?v_62) ?v_52)) (or (or ?v_156 P20) ?v_144)) (or (or ?v_64 P12) P7)) (or (or ?v_60 ?v_14) ?v_56)) (or (or ?v_75 ?v_24) P24)) (or (or ?v_39 ?v_142) ?v_92)) (or (or ?v_116 ?v_70) ?v_8)) (or (or ?v_55 ?v_107) ?v_100)) (or (or ?v_68 ?v_114) ?v_101)) (or (or ?v_82 ?v_82) ?v_76)) (or (or ?v_125 ?v_34) ?v_20)) (or (or ?v_97 ?v_133) ?v_103)) (or (or P28 ?v_63) ?v_115)) (or (or ?v_114 ?v_121) ?v_72)) (or (or ?v_140 ?v_10) ?v_69)) (or (or ?v_60 ?v_48) ?v_16)) (or (or P5 P3) ?v_100)) (or (or P28 ?v_68) ?v_30)) (or (or ?v_0 ?v_13) ?v_116)) (or (or ?v_104 ?v_24) ?v_158)) (or (or ?v_36 ?v_108) ?v_77)) (or ?v_159 ?v_23)) (or (or ?v_55 ?v_134) ?v_129)) (or (or ?v_76 ?v_26) ?v_77)) (or (or ?v_86 ?v_83) ?v_115)) (or (or P14 ?v_3) ?v_57)) (or (or ?v_67 ?v_53) P15)) (or (or ?v_58 ?v_69) ?v_81)) (or (or ?v_83 P19) P3)) (or (or ?v_50 ?v_12) P15)) (or (or ?v_14 ?v_36) ?v_124)) (or (or ?v_77 ?v_59) ?v_125)) (or (or ?v_125 ?v_41) ?v_35)) (or (or ?v_76 P15) ?v_27)) (or (or ?v_128 P19) ?v_104)) (or (or ?v_103 ?v_148) ?v_160)) (or (or ?v_127 ?v_158) ?v_118)) (or (or ?v_10 P3) ?v_5)) (or (or ?v_115 P11) ?v_3)) (or (or ?v_78 ?v_16) ?v_129)) (or (or ?v_110 ?v_56) ?v_118)) (or (or ?v_3 ?v_70) P23)) (or (or P25 ?v_104) ?v_91)) (or (or ?v_71 ?v_65) ?v_18)) (or (or ?v_133 ?v_66) ?v_53)) (or (or P20 ?v_114) ?v_106)) (or (or ?v_82 ?v_10) P24)) (or (or ?v_90 ?v_59) ?v_160)) (or (or ?v_44 ?v_106) P19)) (or (or ?v_149 ?v_74) ?v_84)) (or (or ?v_74 ?v_131) P24)) (or (or ?v_118 ?v_154) ?v_153)) (or (or P18 ?v_14) ?v_124)) (or (or ?v_58 ?v_75) ?v_13)) (or (or ?v_107 ?v_7) ?v_82)) (or (or ?v_19 ?v_18) ?v_146)) (or (or ?v_152 P8) ?v_105)) (or (or ?v_121 ?v_114) P24)) (or (or ?v_127 ?v_66) ?v_64)) (or (or ?v_114 ?v_36) ?v_108)) (or (or ?v_136 ?v_68) ?v_10)) (or (or ?v_48 ?v_59) ?v_52)) (or (or ?v_132 ?v_3) ?v_131)) (or (or ?v_36 ?v_131) ?v_138)) (or (or ?v_123 ?v_71) P17)) (or (or P14 ?v_52) ?v_75)) (or (or P1 ?v_44) ?v_97)) (or (or ?v_152 ?v_135) P16)) (or (or ?v_81 ?v_110) ?v_70)) (or (or ?v_72 P5) ?v_10)) (or (or ?v_53 ?v_0) ?v_137)) (or (or ?v_25 ?v_80) ?v_74)) (or (or ?v_145 ?v_90) ?v_55)) (or (or ?v_36 ?v_160) ?v_133)) (or (or ?v_11 ?v_78) ?v_5)) (or (or P6 ?v_24) ?v_94)) (or (or ?v_92 ?v_99) ?v_128)) (or (or P18 ?v_64) ?v_129)) (or (or P22 P24) ?v_7)) (or (or ?v_18 ?v_100) P16)) (or (or ?v_116 ?v_46) ?v_128)) (or ?v_161 ?v_59)) (or (or ?v_89 ?v_61) ?v_105)) (or (or ?v_114 ?v_132) ?v_103)) (or (or ?v_150 ?v_16) P2)) (or (or ?v_129 ?v_0) P22)) (or (or ?v_114 ?v_62) ?v_85)) (or (or ?v_49 P6) ?v_155)) (or (or ?v_66 ?v_107) ?v_73)) (or (or ?v_103 ?v_39) ?v_13)) (or (or P24 ?v_33) ?v_13)) (or (or ?v_70 ?v_131) ?v_84)) (or (or ?v_113 ?v_93) ?v_105)) (or (or ?v_109 ?v_153) ?v_19)) (or (or ?v_42 ?v_62) ?v_78)) (or (or ?v_59 ?v_50) ?v_44)) (or (or ?v_133 P21) P11)) (or (or ?v_71 ?v_61) ?v_14)) (or (or ?v_3 ?v_121) ?v_98)) (or (or ?v_145 ?v_86) ?v_118)) (or (or ?v_30 ?v_62) P15)) (or (or ?v_151 P13) ?v_79)) (or (or ?v_144 ?v_142) ?v_8)) (or (or P7 ?v_152) ?v_140)) (or (or ?v_47 ?v_19) ?v_51)) (or (or P17 P13) ?v_79)) (or (or ?v_109 ?v_117) P22)) (or (or ?v_85 ?v_55) ?v_93)) (or (or ?v_122 ?v_36) ?v_63)) (or (or ?v_97 ?v_25) ?v_51)) (or ?v_162 ?v_145)) (or (or ?v_81 ?v_76) ?v_156)) (or (or ?v_64 ?v_63) ?v_34)) (or (or ?v_136 ?v_131) ?v_0)) (or (or ?v_121 P15) ?v_71)) (or (or ?v_101 ?v_70) ?v_0)) (or (or ?v_68 P16) ?v_117)) (or (or ?v_101 ?v_88) ?v_39)) (or (or ?v_146 P13) ?v_18)) (or (or ?v_19 ?v_163) ?v_12)) (or (or ?v_35 P21) P9)) (or (or ?v_81 ?v_118) ?v_15)) (or (or P27 ?v_104) ?v_25)) (or (or ?v_66 ?v_155) ?v_160)) (or (or P14 ?v_43) ?v_54)) (or (or ?v_102 ?v_61) ?v_148)) (or (or ?v_123 ?v_54) ?v_119)) (or (or P7 ?v_1) ?v_149)) (or (or P8 ?v_26) ?v_60)) (or (or ?v_131 P1) ?v_118)) (or (or ?v_136 ?v_82) ?v_64)) (or (or P0 ?v_58) ?v_155)) (or (or ?v_82 ?v_163) ?v_158)) (or (or ?v_38 P13) ?v_68)) (or (or ?v_11 ?v_102) ?v_144)) (or (or ?v_89 ?v_113) ?v_132)) (or (or ?v_0 ?v_5) ?v_111)) (or (or ?v_156 ?v_60) ?v_149)) (or (or ?v_26 ?v_53) ?v_128)) (or (or ?v_61 P25) ?v_139)) (or (or ?v_51 ?v_64) ?v_91)) (or (or ?v_50 ?v_81) ?v_138)) (or (or ?v_86 ?v_122) P0)) (or (or ?v_61 P8) ?v_48)) (or (or ?v_38 ?v_97) ?v_72)) (or (or P20 ?v_138) ?v_83)) (or (or ?v_156 ?v_80) ?v_121)) (or (or ?v_135 ?v_121) P13)) (or (or ?v_8 ?v_93) ?v_136)) (or (or ?v_55 ?v_124) ?v_57)) (or (or ?v_137 ?v_86) ?v_72)) (or (or P15 ?v_71) ?v_146)) (or (or ?v_97 ?v_100) ?v_64)) (or (or ?v_63 ?v_101) ?v_85)) (or (or ?v_101 ?v_12) ?v_129)) (or (or ?v_143 ?v_87) ?v_15)) (or (or ?v_60 ?v_107) ?v_116)) (or (or ?v_126 ?v_53) ?v_10)) (or (or ?v_64 ?v_73) ?v_32)) (or (or ?v_3 ?v_137) ?v_154)) (or (or ?v_83 P23) ?v_158))))))))))))))))))))))))
(check-sat)
(exit)
